1
1000
47
150 3
151 1
152 1
153 1
154 1
155 1
156 1
157 1
158 1
159 5
160 5
161 2
162 4
163 1
164 3
165 1
166 2
167 4
168 4
170 1
171 3
172 1
173 1
176 1
177 3
178 3
179 2
180 4
181 3
182 2
183 2
184 4
186 1
187 1
188 1
189 2
190 1
191 3
192 3
193 2
194 1
195 2
196 3
197 1
198 2
199 4
200 1
